CKP/CKP_n50_Instance_7.lp
\ENCODING=ISO-8859-1
\Problem name: CKP

Maximize
 obj: x1 + x2 + x3 + x4 + x5 + x6 + x7 + x8 + x9 + x10 + x11 + x12 + x13 + x14
      + x15 + x16 + x17 + x18 + x19 + x20 + x21 + x22 + x23 + x24 + x25 + x26
      + x27 + x28 + x29 + x30 + x31 + x32 + x33 + x34 + x35 + x36 + x37 + x38
      + x39 + x40 + x41 + x42 + x43 + x44 + x45 + x46 + x47 + x48 + x49 + x50
Subject To
 c1: 11306 x1 + 11307 x2 + 11308 x3 + 11341 x4 + 11342 x5 + 11343 x6 + 11376 x7
     + 11377 x8 + 11378 x9 + 11865 x10 + 11866 x11 + 11867 x12 + 11900 x13
     + 11901 x14 + 11902 x15 + 11935 x16 + 11936 x17 + 11937 x18 + 12424 x19
     + 12425 x20 + 12426 x21 + 12459 x22 + 12460 x23 + 11306 x24 + 11308 x25
     + 11341 x26 + 11342 x27 + 11343 x28 + 11376 x29 + 11377 x30 + 11378 x31
     + 11866 x32 + 11867 x33 + 11901 x34 + 11902 x35 + 11935 x36 + 11936 x37
     + 11937 x38 + 12425 x39 + 12460 x40 + 12461 x41 + 12494 x42 + 22020 x43
     + 22054 x44 + 22055 x45 + 22056 x46 + 22089 x47 + 22090 x48 + 22091 x49
     + 22578 x50 >= 336621
 c2: 11306 x1 + 11307 x2 + 11308 x3 + 11341 x4 + 11342 x5 + 11343 x6 + 11376 x7
     + 11377 x8 + 11378 x9 + 11865 x10 + 11866 x11 + 11867 x12 + 11900 x13
     + 11901 x14 + 11902 x15 + 11935 x16 + 11936 x17 + 11937 x18 + 12424 x19
     + 12425 x20 + 12426 x21 + 12459 x22 + 12460 x23 + 11306 x24 + 11308 x25
     + 11341 x26 + 11342 x27 + 11343 x28 + 11376 x29 + 11377 x30 + 11378 x31
     + 11866 x32 + 11867 x33 + 11901 x34 + 11902 x35 + 11935 x36 + 11936 x37
     + 11937 x38 + 12425 x39 + 12460 x40 + 12461 x41 + 12494 x42 + 22020 x43
     + 22054 x44 + 22055 x45 + 22056 x46 + 22089 x47 + 22090 x48 + 22091 x49
     + 22578 x50 <= 336622
Bounds
 0 <= x1 <= 1
 0 <= x2 <= 1
 0 <= x3 <= 1
 0 <= x4 <= 1
 0 <= x5 <= 1
 0 <= x6 <= 1
 0 <= x7 <= 1
 0 <= x8 <= 1
 0 <= x9 <= 1
 0 <= x10 <= 1
 0 <= x11 <= 1
 0 <= x12 <= 1
 0 <= x13 <= 1
 0 <= x14 <= 1
 0 <= x15 <= 1
 0 <= x16 <= 1
 0 <= x17 <= 1
 0 <= x18 <= 1
 0 <= x19 <= 1
 0 <= x20 <= 1
 0 <= x21 <= 1
 0 <= x22 <= 1
 0 <= x23 <= 1
 0 <= x24 <= 1
 0 <= x25 <= 1
 0 <= x26 <= 1
 0 <= x27 <= 1
 0 <= x28 <= 1
 0 <= x29 <= 1
 0 <= x30 <= 1
 0 <= x31 <= 1
 0 <= x32 <= 1
 0 <= x33 <= 1
 0 <= x34 <= 1
 0 <= x35 <= 1
 0 <= x36 <= 1
 0 <= x37 <= 1
 0 <= x38 <= 1
 0 <= x39 <= 1
 0 <= x40 <= 1
 0 <= x41 <= 1
 0 <= x42 <= 1
 0 <= x43 <= 1
 0 <= x44 <= 1
 0 <= x45 <= 1
 0 <= x46 <= 1
 0 <= x47 <= 1
 0 <= x48 <= 1
 0 <= x49 <= 1
 0 <= x50 <= 1
Binaries
 x1  x2  x3  x4  x5  x6  x7  x8  x9  x10  x11  x12  x13  x14  x15  x16  x17 
 x18  x19  x20  x21  x22  x23  x24  x25  x26  x27  x28  x29  x30  x31  x32 
 x33  x34  x35  x36  x37  x38  x39  x40  x41  x42  x43  x44  x45  x46  x47 
 x48  x49  x50 
End
