CKP/CKP_n50_Instance_7.lp.txt
\ENCODING=ISO-8859-1
\Problem name: CKP

Maximize
 obj: x1 + x2 + x3 + x4 + x5 + x6 + x7 + x8 + x9 + x10 + x11 + x12 + x13 + x14
      + x15 + x16 + x17 + x18 + x19 + x20 + x21 + x22 + x23 + x24 + x25 + x26
      + x27 + x28 + x29 + x30 + x31 + x32 + x33 + x34 + x35 + x36 + x37 + x38
      + x39 + x40 + x41 + x42 + x43 + x44 + x45 + x46 + x47 + x48 + x49 + x50
Subject To
 c1: 13747 x1 + 13748 x2 + 13749 x3 + 13783 x4 + 13784 x5 + 13785 x6 + 13819 x7
     + 13820 x8 + 13821 x9 + 14399 x10 + 14400 x11 + 14401 x12 + 14435 x13
     + 14436 x14 + 14437 x15 + 14471 x16 + 14472 x17 + 14473 x18 + 15051 x19
     + 15052 x20 + 15053 x21 + 15087 x22 + 15088 x23 + 13747 x24 + 13748 x25
     + 13749 x26 + 13783 x27 + 13784 x28 + 13785 x29 + 13819 x30 + 13821 x31
     + 14399 x32 + 14400 x33 + 14401 x34 + 14435 x35 + 14436 x36 + 14472 x37
     + 14473 x38 + 15052 x39 + 15053 x40 + 15089 x41 + 15123 x42 + 15124 x43
     + 26807 x44 + 26808 x45 + 26809 x46 + 26843 x47 + 26845 x48 + 26879 x49
     + 26880 x50 >= 381713
 c2: 13747 x1 + 13748 x2 + 13749 x3 + 13783 x4 + 13784 x5 + 13785 x6 + 13819 x7
     + 13820 x8 + 13821 x9 + 14399 x10 + 14400 x11 + 14401 x12 + 14435 x13
     + 14436 x14 + 14437 x15 + 14471 x16 + 14472 x17 + 14473 x18 + 15051 x19
     + 15052 x20 + 15053 x21 + 15087 x22 + 15088 x23 + 13747 x24 + 13748 x25
     + 13749 x26 + 13783 x27 + 13784 x28 + 13785 x29 + 13819 x30 + 13821 x31
     + 14399 x32 + 14400 x33 + 14401 x34 + 14435 x35 + 14436 x36 + 14472 x37
     + 14473 x38 + 15052 x39 + 15053 x40 + 15089 x41 + 15123 x42 + 15124 x43
     + 26807 x44 + 26808 x45 + 26809 x46 + 26843 x47 + 26845 x48 + 26879 x49
     + 26880 x50 <= 381714
Bounds
 0 <= x1 <= 1
 0 <= x2 <= 1
 0 <= x3 <= 1
 0 <= x4 <= 1
 0 <= x5 <= 1
 0 <= x6 <= 1
 0 <= x7 <= 1
 0 <= x8 <= 1
 0 <= x9 <= 1
 0 <= x10 <= 1
 0 <= x11 <= 1
 0 <= x12 <= 1
 0 <= x13 <= 1
 0 <= x14 <= 1
 0 <= x15 <= 1
 0 <= x16 <= 1
 0 <= x17 <= 1
 0 <= x18 <= 1
 0 <= x19 <= 1
 0 <= x20 <= 1
 0 <= x21 <= 1
 0 <= x22 <= 1
 0 <= x23 <= 1
 0 <= x24 <= 1
 0 <= x25 <= 1
 0 <= x26 <= 1
 0 <= x27 <= 1
 0 <= x28 <= 1
 0 <= x29 <= 1
 0 <= x30 <= 1
 0 <= x31 <= 1
 0 <= x32 <= 1
 0 <= x33 <= 1
 0 <= x34 <= 1
 0 <= x35 <= 1
 0 <= x36 <= 1
 0 <= x37 <= 1
 0 <= x38 <= 1
 0 <= x39 <= 1
 0 <= x40 <= 1
 0 <= x41 <= 1
 0 <= x42 <= 1
 0 <= x43 <= 1
 0 <= x44 <= 1
 0 <= x45 <= 1
 0 <= x46 <= 1
 0 <= x47 <= 1
 0 <= x48 <= 1
 0 <= x49 <= 1
 0 <= x50 <= 1
Binaries
 x1  x2  x3  x4  x5  x6  x7  x8  x9  x10  x11  x12  x13  x14  x15  x16  x17 
 x18  x19  x20  x21  x22  x23  x24  x25  x26  x27  x28  x29  x30  x31  x32 
 x33  x34  x35  x36  x37  x38  x39  x40  x41  x42  x43  x44  x45  x46  x47 
 x48  x49  x50 
End
